2377.0
2280.0
2312.0
2473.0
2596.0
2262.0
2352.0
2378.0
2319.0
2285.0
2414.0
2463.0
2446.0
2350.0
2492.0
2298.0
2344.0
2307.0
2187.0
2502.0
2583.0
2449.0
2285.0
2439.0
2723.0
2424.0
2452.0
2378.0
2595.0
2371.0